problem_generation/data/GISP/train/er_n=60_m=1080_p=0.60_SET2_setparam=100.00_alpha=0.50_903.lp
maximize
OBJ:100x0 + 100x1 + 100x2 + 100x3 + 100x4 + 100x5 + 100x6 + 100x7 + 100x8 + 100x9 + 100x10 + 100x11 + 100x12 + 100x13 + 100x14 + 100x15 + 100x16 + 100x17 + 100x18 + 100x19 + 100x20 + 100x21 + 100x22 + 100x23 + 100x24 + 100x25 + 100x26 + 100x27 + 100x28 + 100x29 + 100x30 + 100x31 + 100x32 + 100x33 + 100x34 + 100x35 + 100x36 + 100x37 + 100x38 + 100x39 + 100x40 + 100x41 + 100x42 + 100x43 + 100x44 + 100x45 + 100x46 + 100x47 + 100x48 + 100x49 + 100x50 + 100x51 + 100x52 + 100x53 + 100x54 + 100x55 + 100x56 + 100x57 + 100x58 + 100x59 - y55_57 - y7_17 - y7_26 - y17_58 - y28_58 - y18_35 - y18_44 - y29_41 - y40_41 - y21_37 - y0_14 - y29_50 - y21_46 - y6_57 - y41_42 - y33_38 - y33_47 - y2_41 - y3_6 - y44_56 - y22_46 - y17_44 - y47_57 - y28_53 - y29_36 - y21_32 - y6_52 - y29_54 - y10_31 - y2_27 - y25_29 - y3_10 - y3_19 - y14_19 - y43_55 - y14_28 - y7_16 - y28_48 - y5_55 - y17_57 - y29_31 - y21_36 - y29_49 - y21_45 - y10_17 - y32_41 - y24_46 - y3_23 - y16_51 - y36_38 - y7_11 - y9_30 - y17_52 - y6_15 - y28_52 - y9_57 - y50_58 - y6_51 - y21_49 - y39_48 - y10_30 - y25_28 - y12_58 - y2_35 - y32_36 - y3_9 - y51_58 - y35_41 - y32_54 - y16_37 - y24_50 - y35_50 - y24_59 - y35_59 - y17_20 - y5_27 - y17_29 - y5_36 - y28_38 - y5_45 - y9_43 - y28_56 - y50_53 - y21_26 - y6_37 - y42_58 - y39_43 - y20_48 - y12_44 - y2_30 - y24_27 - y32_40 - y13_36 - y32_49 - y16_32 - y43_49 - y1_43 - y13_45 - y1_52 - y17_24 - y28_42 - y9_38 - y9_47 - y42_53 - y20_34 - y20_43 - y12_57 - y23_57 - y4_53 - y16_18 - y13_40 - y5_8 - y9_15 - y17_28 - y28_37 - y9_33 - y42_48 - y0_51 - y20_29 - y23_25 - y2_11 - y4_30 - y23_43 - y20_56 - y4_39 - y1_15 - y13_17 - y4_57 - y16_22 - y24_44 - y57_59 - y15_53 - y9_28 - y27_36 - y8_32 - y30_41 - y42_43 - y50_56 - y8_50 - y19_50 - y42_52 - y0_46 - y11_46 - y19_59 - y20_24 - y30_59 - y0_55 - y12_29 - y20_42 - y4_25 - y31_42 - y23_38 - y20_51 - y23_56 - y13_21 - y53_57 - y24_30 - y5_7 - y15_48 - y7_44 - y15_57 - y49_59 - y18_53 - y19_27 - y50_51 - y11_32 - y8_45 - y30_45 - y27_58 - y11_50 - y12_15 - y23_24 - y31_37 - y4_29 - y1_5 - y4_47 - y45_48 - y37_44 - y16_21 - y22_55 - y1_32 - y34_57 - y15_34 - y26_34 - y46_49 - y15_43 - y57_58 - y38_54 - y7_48 - y19_22 - y0_18 - y11_18 - y8_31 - y30_31 - y19_40 - y11_36 - y8_49 - y19_49 - y30_49 - y41_46 - y30_58 - y20_23 - y11_54 - y31_32 - y12_28 - y23_28 - y4_24 - y23_37 - y34_43 - y1_18 - y45_52 - y3_46 - y22_59 - y15_20 - y26_29 - y18_25 - y7_34 - y15_47 - y38_49 - y0_4 - y7_52 - y18_52 - y11_13 - y19_26 - y30_35 - y11_31 - y8_44 - y0_40 - y11_40 - y41_50 - y4_10 - y44_46 - y25_51 - y2_58 - y22_54 - y45_56 - y3_50 - y14_59 - y15_24 - y18_20 - y7_29 - y26_51 - y29_53 - y8_30 - y0_35 - y33_41 - y44_50 - y2_44 - y2_53 - y3_27 - y22_49 - y34_51 - y14_45 - y22_58 - y26_28 - y18_24 - y26_37 - y18_33 - y18_42 - y0_3 - y8_16 - y6_55 - y41_58 - y2_39 - y52_58 - y10_52 - y25_50 - y22_26 - y25_59 - y22_53 - y7_10 - y7_19 - y18_19 - y15_32 - y47_55 - y7_28 - y18_37 - y29_34 - y0_7 - y6_41 - y29_43 - y21_39 - y0_16 - y11_16 - y40_52 - y21_57 - y10_20 - y25_27 - y2_34 - y25_36 - y25_45 - y2_52 - y32_53 - y14_26 - y14_44 - y36_41 - y15_18 - y36_50 - y17_46 - y47_59 - y9_42 - y17_55 - y6_36 - y29_38 - y48_51 - y6_45 - y21_43 - y40_56 - y21_52 - y2_20 - y2_38 - y10_51 - y51_52 - y2_47 - y22_25 - y3_21 - y14_21 - y32_57 - y43_57 - y3_30 - y14_30 - y17_32 - y17_41 - y36_54 - y5_48 - y28_50 - y6_31 - y29_33 - y29_42 - y40_42 - y21_38 - y2_6 - y2_15 - y10_28 - y51_56 - y13_39 - y24_39 - y3_16 - y24_48 - y3_25 - y13_57 - y35_57 - y17_27 - y5_34 - y28_36 - y47_58 - y6_17 - y9_59 - y21_24 - y21_42 - y2_10 - y2_19 - y31_55 - y13_34 - y13_43 - y24_43 - y1_50 - y16_48 - y1_59 - y16_57 - y5_29 - y17_31 - y28_31 - y28_49 - y21_28 - y2_5 - y2_14 - y2_23 - y12_55 - y13_20 - y1_27 - y24_29 - y1_45 - y13_47 - y35_47 - y16_43 - y13_56 - y46_53 - y36_39 - y38_58 - y49_58 - y17_35 - y28_44 - y9_40 - y6_16 - y8_53 - y39_49 - y31_45 - y20_54 - y4_37 - y54_56 - y12_50 - y23_50 - y12_59 - y13_24 - y23_59 - y16_20 - y24_33 - y16_29 - y1_40 - y38_44 - y5_19 - y5_28 - y28_30 - y9_35 - y27_34 - y6_11 - y6_20 - y8_39 - y27_52 - y19_48 - y30_48 - y42_59 - y20_22 - y12_27 - y23_27 - y23_36 - y31_49 - y4_41 - y23_54 - y13_19 - y53_55 - y13_28 - y35_37 - y9_21 - y26_55 - y5_32 - y7_51 - y49_57 - y8_25 - y8_34 - y30_34 - y0_39 - y11_39 - y8_52 - y12_22 - y20_44 - y4_27 - y12_49 - y1_12 - y13_14 - y4_45 - y45_46 - y1_21 - y34_55 - y45_55 - y37_51 - y16_28 - y5_9 - y46_47 - y15_41 - y26_50 - y38_52 - y18_46 - y27_33 - y27_42 - y30_47 - y11_43 - y8_56 - y30_56 - y11_52 - y41_53 - y20_30 - y12_26 - y23_26 - y4_22 - y33_58 - y4_31 - y23_44 - y1_16 - y45_50 - y22_57 - y34_59 - y45_59 - y3_53 - y15_27 - y26_27 - y26_36 - y5_13 - y7_32 - y18_32 - y15_45 - y49_56 - y8_15 - y0_11 - y18_59 - y8_24 - y19_24 - y0_20 - y8_33 - y0_29 - y11_29 - y19_42 - y11_47 - y20_25 - y12_21 - y41_57 - y4_17 - y12_30 - y22_34 - y1_11 - y1_20 - y14_39 - y53_58 - y3_48 - y15_22 - y15_31 - y15_40 - y7_36 - y18_36 - y26_49 - y0_6 - y19_28 - y11_24 - y0_33 - y0_42 - y12_16 - y10_55 - y44_57 - y25_53 - y22_47 - y34_49 - y45_49 - y37_45 - y22_56 - y45_58 - y7_13 - y15_35 - y7_31 - y26_44 - y7_49 - y18_49 - y8_23 - y40_55 - y33_34 - y10_41 - y25_39 - y2_46 - y10_59 - y14_20 - y3_38 - y37_49
 Subject to
C1: x0+x1 <=1 
C2: x0+x3-y0_3 <=1 
C3: x0+x4-y0_4 <=1 
C4: x0+x5 <=1 
C5: x0+x6-y0_6 <=1 
C6: x0+x7-y0_7 <=1 
C7: x0+x8 <=1 
C8: x0+x9 <=1 
C9: x0+x11-y0_11 <=1 
C10: x0+x12 <=1 
C11: x0+x14-y0_14 <=1 
C12: x0+x16-y0_16 <=1 
C13: x0+x18-y0_18 <=1 
C14: x0+x20-y0_20 <=1 
C15: x0+x27 <=1 
C16: x0+x28 <=1 
C17: x0+x29-y0_29 <=1 
C18: x0+x32 <=1 
C19: x0+x33-y0_33 <=1 
C20: x0+x35-y0_35 <=1 
C21: x0+x36 <=1 
C22: x0+x37 <=1 
C23: x0+x39-y0_39 <=1 
C24: x0+x40-y0_40 <=1 
C25: x0+x42-y0_42 <=1 
C26: x0+x43 <=1 
C27: x0+x45 <=1 
C28: x0+x46-y0_46 <=1 
C29: x0+x47 <=1 
C30: x0+x51-y0_51 <=1 
C31: x0+x55-y0_55 <=1 
C32: x0+x56 <=1 
C33: x1+x5-y1_5 <=1 
C34: x1+x9 <=1 
C35: x1+x10 <=1 
C36: x1+x11-y1_11 <=1 
C37: x1+x12-y1_12 <=1 
C38: x1+x14 <=1 
C39: x1+x15-y1_15 <=1 
C40: x1+x16-y1_16 <=1 
C41: x1+x18-y1_18 <=1 
C42: x1+x20-y1_20 <=1 
C43: x1+x21-y1_21 <=1 
C44: x1+x26 <=1 
C45: x1+x27-y1_27 <=1 
C46: x1+x29 <=1 
C47: x1+x31 <=1 
C48: x1+x32-y1_32 <=1 
C49: x1+x34 <=1 
C50: x1+x36 <=1 
C51: x1+x37 <=1 
C52: x1+x39 <=1 
C53: x1+x40-y1_40 <=1 
C54: x1+x43-y1_43 <=1 
C55: x1+x44 <=1 
C56: x1+x45-y1_45 <=1 
C57: x1+x47 <=1 
C58: x1+x48 <=1 
C59: x1+x50-y1_50 <=1 
C60: x1+x52-y1_52 <=1 
C61: x1+x56 <=1 
C62: x1+x57 <=1 
C63: x1+x58 <=1 
C64: x1+x59-y1_59 <=1 
C65: x2+x3 <=1 
C66: x2+x5-y2_5 <=1 
C67: x2+x6-y2_6 <=1 
C68: x2+x8 <=1 
C69: x2+x9 <=1 
C70: x2+x10-y2_10 <=1 
C71: x2+x11-y2_11 <=1 
C72: x2+x14-y2_14 <=1 
C73: x2+x15-y2_15 <=1 
C74: x2+x16 <=1 
C75: x2+x17 <=1 
C76: x2+x19-y2_19 <=1 
C77: x2+x20-y2_20 <=1 
C78: x2+x22 <=1 
C79: x2+x23-y2_23 <=1 
C80: x2+x24 <=1 
C81: x2+x27-y2_27 <=1 
C82: x2+x30-y2_30 <=1 
C83: x2+x31 <=1 
C84: x2+x34-y2_34 <=1 
C85: x2+x35-y2_35 <=1 
C86: x2+x36 <=1 
C87: x2+x37 <=1 
C88: x2+x38-y2_38 <=1 
C89: x2+x39-y2_39 <=1 
C90: x2+x40 <=1 
C91: x2+x41-y2_41 <=1 
C92: x2+x44-y2_44 <=1 
C93: x2+x46-y2_46 <=1 
C94: x2+x47-y2_47 <=1 
C95: x2+x49 <=1 
C96: x2+x50 <=1 
C97: x2+x52-y2_52 <=1 
C98: x2+x53-y2_53 <=1 
C99: x2+x54 <=1 
C100: x2+x55 <=1 
C101: x2+x57 <=1 
C102: x2+x58-y2_58 <=1 
C103: x3+x4 <=1 
C104: x3+x5 <=1 
C105: x3+x6-y3_6 <=1 
C106: x3+x9-y3_9 <=1 
C107: x3+x10-y3_10 <=1 
C108: x3+x12 <=1 
C109: x3+x15 <=1 
C110: x3+x16-y3_16 <=1 
C111: x3+x17 <=1 
C112: x3+x18 <=1 
C113: x3+x19-y3_19 <=1 
C114: x3+x21-y3_21 <=1 
C115: x3+x23-y3_23 <=1 
C116: x3+x24 <=1 
C117: x3+x25-y3_25 <=1 
C118: x3+x27-y3_27 <=1 
C119: x3+x29 <=1 
C120: x3+x30-y3_30 <=1 
C121: x3+x35 <=1 
C122: x3+x37 <=1 
C123: x3+x38-y3_38 <=1 
C124: x3+x40 <=1 
C125: x3+x41 <=1 
C126: x3+x44 <=1 
C127: x3+x45 <=1 
C128: x3+x46-y3_46 <=1 
C129: x3+x47 <=1 
C130: x3+x48-y3_48 <=1 
C131: x3+x50-y3_50 <=1 
C132: x3+x53-y3_53 <=1 
C133: x3+x55 <=1 
C134: x3+x56 <=1 
C135: x3+x57 <=1 
C136: x3+x59 <=1 
C137: x4+x7 <=1 
C138: x4+x8 <=1 
C139: x4+x9 <=1 
C140: x4+x10-y4_10 <=1 
C141: x4+x11 <=1 
C142: x4+x15 <=1 
C143: x4+x17-y4_17 <=1 
C144: x4+x18 <=1 
C145: x4+x19 <=1 
C146: x4+x22-y4_22 <=1 
C147: x4+x24-y4_24 <=1 
C148: x4+x25-y4_25 <=1 
C149: x4+x26 <=1 
C150: x4+x27-y4_27 <=1 
C151: x4+x28 <=1 
C152: x4+x29-y4_29 <=1 
C153: x4+x30-y4_30 <=1 
C154: x4+x31-y4_31 <=1 
C155: x4+x33 <=1 
C156: x4+x35 <=1 
C157: x4+x37-y4_37 <=1 
C158: x4+x38 <=1 
C159: x4+x39-y4_39 <=1 
C160: x4+x41-y4_41 <=1 
C161: x4+x45-y4_45 <=1 
C162: x4+x46 <=1 
C163: x4+x47-y4_47 <=1 
C164: x4+x48 <=1 
C165: x4+x50 <=1 
C166: x4+x53-y4_53 <=1 
C167: x4+x55 <=1 
C168: x4+x57-y4_57 <=1 
C169: x4+x58 <=1 
C170: x5+x6 <=1 
C171: x5+x7-y5_7 <=1 
C172: x5+x8-y5_8 <=1 
C173: x5+x9-y5_9 <=1 
C174: x5+x13-y5_13 <=1 
C175: x5+x14 <=1 
C176: x5+x15 <=1 
C177: x5+x17 <=1 
C178: x5+x19-y5_19 <=1 
C179: x5+x20 <=1 
C180: x5+x21 <=1 
C181: x5+x22 <=1 
C182: x5+x25 <=1 
C183: x5+x27-y5_27 <=1 
C184: x5+x28-y5_28 <=1 
C185: x5+x29-y5_29 <=1 
C186: x5+x31 <=1 
C187: x5+x32-y5_32 <=1 
C188: x5+x33 <=1 
C189: x5+x34-y5_34 <=1 
C190: x5+x36-y5_36 <=1 
C191: x5+x37 <=1 
C192: x5+x38 <=1 
C193: x5+x39 <=1 
C194: x5+x41 <=1 
C195: x5+x45-y5_45 <=1 
C196: x5+x46 <=1 
C197: x5+x48-y5_48 <=1 
C198: x5+x49 <=1 
C199: x5+x50 <=1 
C200: x5+x51 <=1 
C201: x5+x53 <=1 
C202: x5+x55-y5_55 <=1 
C203: x6+x7 <=1 
C204: x6+x8 <=1 
C205: x6+x11-y6_11 <=1 
C206: x6+x12 <=1 
C207: x6+x13 <=1 
C208: x6+x15-y6_15 <=1 
C209: x6+x16-y6_16 <=1 
C210: x6+x17-y6_17 <=1 
C211: x6+x18 <=1 
C212: x6+x19 <=1 
C213: x6+x20-y6_20 <=1 
C214: x6+x21 <=1 
C215: x6+x23 <=1 
C216: x6+x26 <=1 
C217: x6+x27 <=1 
C218: x6+x29 <=1 
C219: x6+x31-y6_31 <=1 
C220: x6+x32 <=1 
C221: x6+x33 <=1 
C222: x6+x34 <=1 
C223: x6+x36-y6_36 <=1 
C224: x6+x37-y6_37 <=1 
C225: x6+x39 <=1 
C226: x6+x40 <=1 
C227: x6+x41-y6_41 <=1 
C228: x6+x42 <=1 
C229: x6+x43 <=1 
C230: x6+x44 <=1 
C231: x6+x45-y6_45 <=1 
C232: x6+x46 <=1 
C233: x6+x49 <=1 
C234: x6+x51-y6_51 <=1 
C235: x6+x52-y6_52 <=1 
C236: x6+x53 <=1 
C237: x6+x54 <=1 
C238: x6+x55-y6_55 <=1 
C239: x6+x56 <=1 
C240: x6+x57-y6_57 <=1 
C241: x6+x59 <=1 
C242: x7+x8 <=1 
C243: x7+x9 <=1 
C244: x7+x10-y7_10 <=1 
C245: x7+x11-y7_11 <=1 
C246: x7+x13-y7_13 <=1 
C247: x7+x14 <=1 
C248: x7+x15 <=1 
C249: x7+x16-y7_16 <=1 
C250: x7+x17-y7_17 <=1 
C251: x7+x18 <=1 
C252: x7+x19-y7_19 <=1 
C253: x7+x20 <=1 
C254: x7+x23 <=1 
C255: x7+x24 <=1 
C256: x7+x25 <=1 
C257: x7+x26-y7_26 <=1 
C258: x7+x27 <=1 
C259: x7+x28-y7_28 <=1 
C260: x7+x29-y7_29 <=1 
C261: x7+x30 <=1 
C262: x7+x31-y7_31 <=1 
C263: x7+x32-y7_32 <=1 
C264: x7+x33 <=1 
C265: x7+x34-y7_34 <=1 
C266: x7+x35 <=1 
C267: x7+x36-y7_36 <=1 
C268: x7+x38 <=1 
C269: x7+x42 <=1 
C270: x7+x43 <=1 
C271: x7+x44-y7_44 <=1 
C272: x7+x46 <=1 
C273: x7+x47 <=1 
C274: x7+x48-y7_48 <=1 
C275: x7+x49-y7_49 <=1 
C276: x7+x51-y7_51 <=1 
C277: x7+x52-y7_52 <=1 
C278: x7+x53 <=1 
C279: x7+x54 <=1 
C280: x7+x55 <=1 
C281: x7+x56 <=1 
C282: x7+x57 <=1 
C283: x7+x58 <=1 
C284: x8+x10 <=1 
C285: x8+x13 <=1 
C286: x8+x15-y8_15 <=1 
C287: x8+x16-y8_16 <=1 
C288: x8+x21 <=1 
C289: x8+x23-y8_23 <=1 
C290: x8+x24-y8_24 <=1 
C291: x8+x25-y8_25 <=1 
C292: x8+x26 <=1 
C293: x8+x27 <=1 
C294: x8+x30-y8_30 <=1 
C295: x8+x31-y8_31 <=1 
C296: x8+x32-y8_32 <=1 
C297: x8+x33-y8_33 <=1 
C298: x8+x34-y8_34 <=1 
C299: x8+x37 <=1 
C300: x8+x39-y8_39 <=1 
C301: x8+x40 <=1 
C302: x8+x42 <=1 
C303: x8+x43 <=1 
C304: x8+x44-y8_44 <=1 
C305: x8+x45-y8_45 <=1 
C306: x8+x47 <=1 
C307: x8+x49-y8_49 <=1 
C308: x8+x50-y8_50 <=1 
C309: x8+x51 <=1 
C310: x8+x52-y8_52 <=1 
C311: x8+x53-y8_53 <=1 
C312: x8+x54 <=1 
C313: x8+x55 <=1 
C314: x8+x56-y8_56 <=1 
C315: x8+x59 <=1 
C316: x9+x10 <=1 
C317: x9+x13 <=1 
C318: x9+x14 <=1 
C319: x9+x15-y9_15 <=1 
C320: x9+x16 <=1 
C321: x9+x17 <=1 
C322: x9+x19 <=1 
C323: x9+x20 <=1 
C324: x9+x21-y9_21 <=1 
C325: x9+x22 <=1 
C326: x9+x26 <=1 
C327: x9+x28-y9_28 <=1 
C328: x9+x30-y9_30 <=1 
C329: x9+x31 <=1 
C330: x9+x33-y9_33 <=1 
C331: x9+x35-y9_35 <=1 
C332: x9+x37 <=1 
C333: x9+x38-y9_38 <=1 
C334: x9+x40-y9_40 <=1 
C335: x9+x42-y9_42 <=1 
C336: x9+x43-y9_43 <=1 
C337: x9+x44 <=1 
C338: x9+x46 <=1 
C339: x9+x47-y9_47 <=1 
C340: x9+x49 <=1 
C341: x9+x50 <=1 
C342: x9+x55 <=1 
C343: x9+x57-y9_57 <=1 
C344: x9+x58 <=1 
C345: x9+x59-y9_59 <=1 
C346: x10+x11 <=1 
C347: x10+x13 <=1 
C348: x10+x15 <=1 
C349: x10+x16 <=1 
C350: x10+x17-y10_17 <=1 
C351: x10+x18 <=1 
C352: x10+x20-y10_20 <=1 
C353: x10+x22 <=1 
C354: x10+x23 <=1 
C355: x10+x27 <=1 
C356: x10+x28-y10_28 <=1 
C357: x10+x30-y10_30 <=1 
C358: x10+x31-y10_31 <=1 
C359: x10+x35 <=1 
C360: x10+x38 <=1 
C361: x10+x39 <=1 
C362: x10+x40 <=1 
C363: x10+x41-y10_41 <=1 
C364: x10+x43 <=1 
C365: x10+x46 <=1 
C366: x10+x49 <=1 
C367: x10+x51-y10_51 <=1 
C368: x10+x52-y10_52 <=1 
C369: x10+x54 <=1 
C370: x10+x55-y10_55 <=1 
C371: x10+x57 <=1 
C372: x10+x59-y10_59 <=1 
C373: x11+x13-y11_13 <=1 
C374: x11+x14 <=1 
C375: x11+x16-y11_16 <=1 
C376: x11+x17 <=1 
C377: x11+x18-y11_18 <=1 
C378: x11+x19 <=1 
C379: x11+x20 <=1 
C380: x11+x22 <=1 
C381: x11+x24-y11_24 <=1 
C382: x11+x26 <=1 
C383: x11+x29-y11_29 <=1 
C384: x11+x30 <=1 
C385: x11+x31-y11_31 <=1 
C386: x11+x32-y11_32 <=1 
C387: x11+x34 <=1 
C388: x11+x36-y11_36 <=1 
C389: x11+x39-y11_39 <=1 
C390: x11+x40-y11_40 <=1 
C391: x11+x41 <=1 
C392: x11+x43-y11_43 <=1 
C393: x11+x46-y11_46 <=1 
C394: x11+x47-y11_47 <=1 
C395: x11+x48 <=1 
C396: x11+x49 <=1 
C397: x11+x50-y11_50 <=1 
C398: x11+x51 <=1 
C399: x11+x52-y11_52 <=1 
C400: x11+x54-y11_54 <=1 
C401: x11+x56 <=1 
C402: x11+x58 <=1 
C403: x12+x15-y12_15 <=1 
C404: x12+x16-y12_16 <=1 
C405: x12+x20 <=1 
C406: x12+x21-y12_21 <=1 
C407: x12+x22-y12_22 <=1 
C408: x12+x23 <=1 
C409: x12+x26-y12_26 <=1 
C410: x12+x27-y12_27 <=1 
C411: x12+x28-y12_28 <=1 
C412: x12+x29-y12_29 <=1 
C413: x12+x30-y12_30 <=1 
C414: x12+x31 <=1 
C415: x12+x32 <=1 
C416: x12+x33 <=1 
C417: x12+x34 <=1 
C418: x12+x40 <=1 
C419: x12+x44-y12_44 <=1 
C420: x12+x45 <=1 
C421: x12+x46 <=1 
C422: x12+x47 <=1 
C423: x12+x49-y12_49 <=1 
C424: x12+x50-y12_50 <=1 
C425: x12+x51 <=1 
C426: x12+x52 <=1 
C427: x12+x54 <=1 
C428: x12+x55-y12_55 <=1 
C429: x12+x57-y12_57 <=1 
C430: x12+x58-y12_58 <=1 
C431: x12+x59-y12_59 <=1 
C432: x13+x14-y13_14 <=1 
C433: x13+x15 <=1 
C434: x13+x16 <=1 
C435: x13+x17-y13_17 <=1 
C436: x13+x18 <=1 
C437: x13+x19-y13_19 <=1 
C438: x13+x20-y13_20 <=1 
C439: x13+x21-y13_21 <=1 
C440: x13+x22 <=1 
C441: x13+x24-y13_24 <=1 
C442: x13+x28-y13_28 <=1 
C443: x13+x29 <=1 
C444: x13+x31 <=1 
C445: x13+x32 <=1 
C446: x13+x33 <=1 
C447: x13+x34-y13_34 <=1 
C448: x13+x35 <=1 
C449: x13+x36-y13_36 <=1 
C450: x13+x37 <=1 
C451: x13+x39-y13_39 <=1 
C452: x13+x40-y13_40 <=1 
C453: x13+x41 <=1 
C454: x13+x43-y13_43 <=1 
C455: x13+x44 <=1 
C456: x13+x45-y13_45 <=1 
C457: x13+x46 <=1 
C458: x13+x47-y13_47 <=1 
C459: x13+x48 <=1 
C460: x13+x49 <=1 
C461: x13+x53 <=1 
C462: x13+x56-y13_56 <=1 
C463: x13+x57-y13_57 <=1 
C464: x13+x59 <=1 
C465: x14+x16 <=1 
C466: x14+x17 <=1 
C467: x14+x19-y14_19 <=1 
C468: x14+x20-y14_20 <=1 
C469: x14+x21-y14_21 <=1 
C470: x14+x22 <=1 
C471: x14+x24 <=1 
C472: x14+x25 <=1 
C473: x14+x26-y14_26 <=1 
C474: x14+x27 <=1 
C475: x14+x28-y14_28 <=1 
C476: x14+x30-y14_30 <=1 
C477: x14+x31 <=1 
C478: x14+x32 <=1 
C479: x14+x38 <=1 
C480: x14+x39-y14_39 <=1 
C481: x14+x44-y14_44 <=1 
C482: x14+x45-y14_45 <=1 
C483: x14+x49 <=1 
C484: x14+x50 <=1 
C485: x14+x52 <=1 
C486: x14+x53 <=1 
C487: x14+x54 <=1 
C488: x14+x55 <=1 
C489: x14+x59-y14_59 <=1 
C490: x15+x16 <=1 
C491: x15+x17 <=1 
C492: x15+x18-y15_18 <=1 
C493: x15+x20-y15_20 <=1 
C494: x15+x21 <=1 
C495: x15+x22-y15_22 <=1 
C496: x15+x23 <=1 
C497: x15+x24-y15_24 <=1 
C498: x15+x27-y15_27 <=1 
C499: x15+x29 <=1 
C500: x15+x30 <=1 
C501: x15+x31-y15_31 <=1 
C502: x15+x32-y15_32 <=1 
C503: x15+x33 <=1 
C504: x15+x34-y15_34 <=1 
C505: x15+x35-y15_35 <=1 
C506: x15+x36 <=1 
C507: x15+x38 <=1 
C508: x15+x40-y15_40 <=1 
C509: x15+x41-y15_41 <=1 
C510: x15+x43-y15_43 <=1 
C511: x15+x45-y15_45 <=1 
C512: x15+x47-y15_47 <=1 
C513: x15+x48-y15_48 <=1 
C514: x15+x50 <=1 
C515: x15+x53-y15_53 <=1 
C516: x15+x54 <=1 
C517: x15+x57-y15_57 <=1 
C518: x16+x17 <=1 
C519: x16+x18-y16_18 <=1 
C520: x16+x20-y16_20 <=1 
C521: x16+x21-y16_21 <=1 
C522: x16+x22-y16_22 <=1 
C523: x16+x23 <=1 
C524: x16+x24 <=1 
C525: x16+x25 <=1 
C526: x16+x26 <=1 
C527: x16+x28-y16_28 <=1 
C528: x16+x29-y16_29 <=1 
C529: x16+x32-y16_32 <=1 
C530: x16+x37-y16_37 <=1 
C531: x16+x40 <=1 
C532: x16+x41 <=1 
C533: x16+x43-y16_43 <=1 
C534: x16+x46 <=1 
C535: x16+x47 <=1 
C536: x16+x48-y16_48 <=1 
C537: x16+x49 <=1 
C538: x16+x51-y16_51 <=1 
C539: x16+x52 <=1 
C540: x16+x53 <=1 
C541: x16+x54 <=1 
C542: x16+x55 <=1 
C543: x16+x57-y16_57 <=1 
C544: x16+x58 <=1 
C545: x17+x19 <=1 
C546: x17+x20-y17_20 <=1 
C547: x17+x21 <=1 
C548: x17+x22 <=1 
C549: x17+x23 <=1 
C550: x17+x24-y17_24 <=1 
C551: x17+x25 <=1 
C552: x17+x27-y17_27 <=1 
C553: x17+x28-y17_28 <=1 
C554: x17+x29-y17_29 <=1 
C555: x17+x31-y17_31 <=1 
C556: x17+x32-y17_32 <=1 
C557: x17+x34 <=1 
C558: x17+x35-y17_35 <=1 
C559: x17+x36 <=1 
C560: x17+x38 <=1 
C561: x17+x41-y17_41 <=1 
C562: x17+x44-y17_44 <=1 
C563: x17+x45 <=1 
C564: x17+x46-y17_46 <=1 
C565: x17+x48 <=1 
C566: x17+x50 <=1 
C567: x17+x52-y17_52 <=1 
C568: x17+x53 <=1 
C569: x17+x55-y17_55 <=1 
C570: x17+x57-y17_57 <=1 
C571: x17+x58-y17_58 <=1 
C572: x17+x59 <=1 
C573: x18+x19-y18_19 <=1 
C574: x18+x20-y18_20 <=1 
C575: x18+x24-y18_24 <=1 
C576: x18+x25-y18_25 <=1 
C577: x18+x29 <=1 
C578: x18+x31 <=1 
C579: x18+x32-y18_32 <=1 
C580: x18+x33-y18_33 <=1 
C581: x18+x34 <=1 
C582: x18+x35-y18_35 <=1 
C583: x18+x36-y18_36 <=1 
C584: x18+x37-y18_37 <=1 
C585: x18+x38 <=1 
C586: x18+x42-y18_42 <=1 
C587: x18+x44-y18_44 <=1 
C588: x18+x46-y18_46 <=1 
C589: x18+x47 <=1 
C590: x18+x48 <=1 
C591: x18+x49-y18_49 <=1 
C592: x18+x50 <=1 
C593: x18+x51 <=1 
C594: x18+x52-y18_52 <=1 
C595: x18+x53-y18_53 <=1 
C596: x18+x56 <=1 
C597: x18+x58 <=1 
C598: x18+x59-y18_59 <=1 
C599: x19+x22-y19_22 <=1 
C600: x19+x24-y19_24 <=1 
C601: x19+x25 <=1 
C602: x19+x26-y19_26 <=1 
C603: x19+x27-y19_27 <=1 
C604: x19+x28-y19_28 <=1 
C605: x19+x31 <=1 
C606: x19+x36 <=1 
C607: x19+x40-y19_40 <=1 
C608: x19+x42-y19_42 <=1 
C609: x19+x43 <=1 
C610: x19+x45 <=1 
C611: x19+x48-y19_48 <=1 
C612: x19+x49-y19_49 <=1 
C613: x19+x50-y19_50 <=1 
C614: x19+x52 <=1 
C615: x19+x54 <=1 
C616: x19+x56 <=1 
C617: x19+x57 <=1 
C618: x19+x58 <=1 
C619: x19+x59-y19_59 <=1 
C620: x20+x22-y20_22 <=1 
C621: x20+x23-y20_23 <=1 
C622: x20+x24-y20_24 <=1 
C623: x20+x25-y20_25 <=1 
C624: x20+x28 <=1 
C625: x20+x29-y20_29 <=1 
C626: x20+x30-y20_30 <=1 
C627: x20+x33 <=1 
C628: x20+x34-y20_34 <=1 
C629: x20+x38 <=1 
C630: x20+x42-y20_42 <=1 
C631: x20+x43-y20_43 <=1 
C632: x20+x44-y20_44 <=1 
C633: x20+x47 <=1 
C634: x20+x48-y20_48 <=1 
C635: x20+x50 <=1 
C636: x20+x51-y20_51 <=1 
C637: x20+x53 <=1 
C638: x20+x54-y20_54 <=1 
C639: x20+x56-y20_56 <=1 
C640: x20+x59 <=1 
C641: x21+x22 <=1 
C642: x21+x24-y21_24 <=1 
C643: x21+x25 <=1 
C644: x21+x26-y21_26 <=1 
C645: x21+x28-y21_28 <=1 
C646: x21+x29 <=1 
C647: x21+x30 <=1 
C648: x21+x31 <=1 
C649: x21+x32-y21_32 <=1 
C650: x21+x34 <=1 
C651: x21+x35 <=1 
C652: x21+x36-y21_36 <=1 
C653: x21+x37-y21_37 <=1 
C654: x21+x38-y21_38 <=1 
C655: x21+x39-y21_39 <=1 
C656: x21+x40 <=1 
C657: x21+x41 <=1 
C658: x21+x42-y21_42 <=1 
C659: x21+x43-y21_43 <=1 
C660: x21+x44 <=1 
C661: x21+x45-y21_45 <=1 
C662: x21+x46-y21_46 <=1 
C663: x21+x47 <=1 
C664: x21+x49-y21_49 <=1 
C665: x21+x50 <=1 
C666: x21+x52-y21_52 <=1 
C667: x21+x54 <=1 
C668: x21+x57-y21_57 <=1 
C669: x21+x58 <=1 
C670: x22+x25-y22_25 <=1 
C671: x22+x26-y22_26 <=1 
C672: x22+x33 <=1 
C673: x22+x34-y22_34 <=1 
C674: x22+x37 <=1 
C675: x22+x39 <=1 
C676: x22+x41 <=1 
C677: x22+x42 <=1 
C678: x22+x44 <=1 
C679: x22+x46-y22_46 <=1 
C680: x22+x47-y22_47 <=1 
C681: x22+x49-y22_49 <=1 
C682: x22+x53-y22_53 <=1 
C683: x22+x54-y22_54 <=1 
C684: x22+x55-y22_55 <=1 
C685: x22+x56-y22_56 <=1 
C686: x22+x57-y22_57 <=1 
C687: x22+x58-y22_58 <=1 
C688: x22+x59-y22_59 <=1 
C689: x23+x24-y23_24 <=1 
C690: x23+x25-y23_25 <=1 
C691: x23+x26-y23_26 <=1 
C692: x23+x27-y23_27 <=1 
C693: x23+x28-y23_28 <=1 
C694: x23+x30 <=1 
C695: x23+x31 <=1 
C696: x23+x33 <=1 
C697: x23+x36-y23_36 <=1 
C698: x23+x37-y23_37 <=1 
C699: x23+x38-y23_38 <=1 
C700: x23+x40 <=1 
C701: x23+x41 <=1 
C702: x23+x43-y23_43 <=1 
C703: x23+x44-y23_44 <=1 
C704: x23+x46 <=1 
C705: x23+x47 <=1 
C706: x23+x50-y23_50 <=1 
C707: x23+x51 <=1 
C708: x23+x52 <=1 
C709: x23+x54-y23_54 <=1 
C710: x23+x56-y23_56 <=1 
C711: x23+x57-y23_57 <=1 
C712: x23+x58 <=1 
C713: x23+x59-y23_59 <=1 
C714: x24+x25 <=1 
C715: x24+x27-y24_27 <=1 
C716: x24+x29-y24_29 <=1 
C717: x24+x30-y24_30 <=1 
C718: x24+x33-y24_33 <=1 
C719: x24+x37 <=1 
C720: x24+x39-y24_39 <=1 
C721: x24+x41 <=1 
C722: x24+x42 <=1 
C723: x24+x43-y24_43 <=1 
C724: x24+x44-y24_44 <=1 
C725: x24+x45 <=1 
C726: x24+x46-y24_46 <=1 
C727: x24+x48-y24_48 <=1 
C728: x24+x49 <=1 
C729: x24+x50-y24_50 <=1 
C730: x24+x53 <=1 
C731: x24+x55 <=1 
C732: x24+x58 <=1 
C733: x24+x59-y24_59 <=1 
C734: x25+x27-y25_27 <=1 
C735: x25+x28-y25_28 <=1 
C736: x25+x29-y25_29 <=1 
C737: x25+x30 <=1 
C738: x25+x31 <=1 
C739: x25+x33 <=1 
C740: x25+x35 <=1 
C741: x25+x36-y25_36 <=1 
C742: x25+x38 <=1 
C743: x25+x39-y25_39 <=1 
C744: x25+x42 <=1 
C745: x25+x44 <=1 
C746: x25+x45-y25_45 <=1 
C747: x25+x47 <=1 
C748: x25+x49 <=1 
C749: x25+x50-y25_50 <=1 
C750: x25+x51-y25_51 <=1 
C751: x25+x52 <=1 
C752: x25+x53-y25_53 <=1 
C753: x25+x54 <=1 
C754: x25+x57 <=1 
C755: x25+x59-y25_59 <=1 
C756: x26+x27-y26_27 <=1 
C757: x26+x28-y26_28 <=1 
C758: x26+x29-y26_29 <=1 
C759: x26+x31 <=1 
C760: x26+x32 <=1 
C761: x26+x34-y26_34 <=1 
C762: x26+x35 <=1 
C763: x26+x36-y26_36 <=1 
C764: x26+x37-y26_37 <=1 
C765: x26+x38 <=1 
C766: x26+x40 <=1 
C767: x26+x42 <=1 
C768: x26+x44-y26_44 <=1 
C769: x26+x49-y26_49 <=1 
C770: x26+x50-y26_50 <=1 
C771: x26+x51-y26_51 <=1 
C772: x26+x54 <=1 
C773: x26+x55-y26_55 <=1 
C774: x26+x56 <=1 
C775: x26+x58 <=1 
C776: x26+x59 <=1 
C777: x27+x33-y27_33 <=1 
C778: x27+x34-y27_34 <=1 
C779: x27+x36-y27_36 <=1 
C780: x27+x37 <=1 
C781: x27+x41 <=1 
C782: x27+x42-y27_42 <=1 
C783: x27+x45 <=1 
C784: x27+x47 <=1 
C785: x27+x50 <=1 
C786: x27+x51 <=1 
C787: x27+x52-y27_52 <=1 
C788: x27+x54 <=1 
C789: x27+x58-y27_58 <=1 
C790: x28+x30-y28_30 <=1 
C791: x28+x31-y28_31 <=1 
C792: x28+x32 <=1 
C793: x28+x34 <=1 
C794: x28+x35 <=1 
C795: x28+x36-y28_36 <=1 
C796: x28+x37-y28_37 <=1 
C797: x28+x38-y28_38 <=1 
C798: x28+x39 <=1 
C799: x28+x40 <=1 
C800: x28+x42-y28_42 <=1 
C801: x28+x44-y28_44 <=1 
C802: x28+x47 <=1 
C803: x28+x48-y28_48 <=1 
C804: x28+x49-y28_49 <=1 
C805: x28+x50-y28_50 <=1 
C806: x28+x51 <=1 
C807: x28+x52-y28_52 <=1 
C808: x28+x53-y28_53 <=1 
C809: x28+x54 <=1 
C810: x28+x56-y28_56 <=1 
C811: x28+x58-y28_58 <=1 
C812: x29+x31-y29_31 <=1 
C813: x29+x33-y29_33 <=1 
C814: x29+x34-y29_34 <=1 
C815: x29+x35 <=1 
C816: x29+x36-y29_36 <=1 
C817: x29+x38-y29_38 <=1 
C818: x29+x39 <=1 
C819: x29+x40 <=1 
C820: x29+x41-y29_41 <=1 
C821: x29+x42-y29_42 <=1 
C822: x29+x43-y29_43 <=1 
C823: x29+x44 <=1 
C824: x29+x49-y29_49 <=1 
C825: x29+x50-y29_50 <=1 
C826: x29+x51 <=1 
C827: x29+x53-y29_53 <=1 
C828: x29+x54-y29_54 <=1 
C829: x29+x58 <=1 
C830: x30+x31-y30_31 <=1 
C831: x30+x32 <=1 
C832: x30+x34-y30_34 <=1 
C833: x30+x35-y30_35 <=1 
C834: x30+x39 <=1 
C835: x30+x40 <=1 
C836: x30+x41-y30_41 <=1 
C837: x30+x45-y30_45 <=1 
C838: x30+x46 <=1 
C839: x30+x47-y30_47 <=1 
C840: x30+x48-y30_48 <=1 
C841: x30+x49-y30_49 <=1 
C842: x30+x50 <=1 
C843: x30+x51 <=1 
C844: x30+x53 <=1 
C845: x30+x54 <=1 
C846: x30+x56-y30_56 <=1 
C847: x30+x58-y30_58 <=1 
C848: x30+x59-y30_59 <=1 
C849: x31+x32-y31_32 <=1 
C850: x31+x33 <=1 
C851: x31+x35 <=1 
C852: x31+x37-y31_37 <=1 
C853: x31+x38 <=1 
C854: x31+x39 <=1 
C855: x31+x40 <=1 
C856: x31+x41 <=1 
C857: x31+x42-y31_42 <=1 
C858: x31+x43 <=1 
C859: x31+x44 <=1 
C860: x31+x45-y31_45 <=1 
C861: x31+x48 <=1 
C862: x31+x49-y31_49 <=1 
C863: x31+x51 <=1 
C864: x31+x55-y31_55 <=1 
C865: x31+x58 <=1 
C866: x31+x59 <=1 
C867: x32+x33 <=1 
C868: x32+x35 <=1 
C869: x32+x36-y32_36 <=1 
C870: x32+x37 <=1 
C871: x32+x38 <=1 
C872: x32+x40-y32_40 <=1 
C873: x32+x41-y32_41 <=1 
C874: x32+x45 <=1 
C875: x32+x49-y32_49 <=1 
C876: x32+x53-y32_53 <=1 
C877: x32+x54-y32_54 <=1 
C878: x32+x55 <=1 
C879: x32+x57-y32_57 <=1 
C880: x33+x34-y33_34 <=1 
C881: x33+x37 <=1 
C882: x33+x38-y33_38 <=1 
C883: x33+x40 <=1 
C884: x33+x41-y33_41 <=1 
C885: x33+x43 <=1 
C886: x33+x47-y33_47 <=1 
C887: x33+x50 <=1 
C888: x33+x52 <=1 
C889: x33+x53 <=1 
C890: x33+x57 <=1 
C891: x33+x58-y33_58 <=1 
C892: x33+x59 <=1 
C893: x34+x35 <=1 
C894: x34+x41 <=1 
C895: x34+x43-y34_43 <=1 
C896: x34+x44 <=1 
C897: x34+x45 <=1 
C898: x34+x48 <=1 
C899: x34+x49-y34_49 <=1 
C900: x34+x51-y34_51 <=1 
C901: x34+x54 <=1 
C902: x34+x55-y34_55 <=1 
C903: x34+x56 <=1 
C904: x34+x57-y34_57 <=1 
C905: x34+x59-y34_59 <=1 
C906: x35+x37-y35_37 <=1 
C907: x35+x40 <=1 
C908: x35+x41-y35_41 <=1 
C909: x35+x45 <=1 
C910: x35+x47-y35_47 <=1 
C911: x35+x49 <=1 
C912: x35+x50-y35_50 <=1 
C913: x35+x52 <=1 
C914: x35+x55 <=1 
C915: x35+x57-y35_57 <=1 
C916: x35+x59-y35_59 <=1 
C917: x36+x38-y36_38 <=1 
C918: x36+x39-y36_39 <=1 
C919: x36+x41-y36_41 <=1 
C920: x36+x42 <=1 
C921: x36+x44 <=1 
C922: x36+x45 <=1 
C923: x36+x50-y36_50 <=1 
C924: x36+x54-y36_54 <=1 
C925: x36+x55 <=1 
C926: x36+x56 <=1 
C927: x36+x59 <=1 
C928: x37+x42 <=1 
C929: x37+x44-y37_44 <=1 
C930: x37+x45-y37_45 <=1 
C931: x37+x47 <=1 
C932: x37+x49-y37_49 <=1 
C933: x37+x51-y37_51 <=1 
C934: x37+x52 <=1 
C935: x37+x53 <=1 
C936: x37+x55 <=1 
C937: x38+x39 <=1 
C938: x38+x40 <=1 
C939: x38+x42 <=1 
C940: x38+x43 <=1 
C941: x38+x44-y38_44 <=1 
C942: x38+x45 <=1 
C943: x38+x46 <=1 
C944: x38+x47 <=1 
C945: x38+x49-y38_49 <=1 
C946: x38+x52-y38_52 <=1 
C947: x38+x53 <=1 
C948: x38+x54-y38_54 <=1 
C949: x38+x55 <=1 
C950: x38+x58-y38_58 <=1 
C951: x38+x59 <=1 
C952: x39+x41 <=1 
C953: x39+x42 <=1 
C954: x39+x43-y39_43 <=1 
C955: x39+x46 <=1 
C956: x39+x47 <=1 
C957: x39+x48-y39_48 <=1 
C958: x39+x49-y39_49 <=1 
C959: x39+x52 <=1 
C960: x39+x53 <=1 
C961: x39+x54 <=1 
C962: x39+x55 <=1 
C963: x39+x58 <=1 
C964: x40+x41-y40_41 <=1 
C965: x40+x42-y40_42 <=1 
C966: x40+x43 <=1 
C967: x40+x44 <=1 
C968: x40+x46 <=1 
C969: x40+x47 <=1 
C970: x40+x48 <=1 
C971: x40+x51 <=1 
C972: x40+x52-y40_52 <=1 
C973: x40+x53 <=1 
C974: x40+x55-y40_55 <=1 
C975: x40+x56-y40_56 <=1 
C976: x41+x42-y41_42 <=1 
C977: x41+x44 <=1 
C978: x41+x46-y41_46 <=1 
C979: x41+x50-y41_50 <=1 
C980: x41+x53-y41_53 <=1 
C981: x41+x55 <=1 
C982: x41+x56 <=1 
C983: x41+x57-y41_57 <=1 
C984: x41+x58-y41_58 <=1 
C985: x41+x59 <=1 
C986: x42+x43-y42_43 <=1 
C987: x42+x44 <=1 
C988: x42+x46 <=1 
C989: x42+x47 <=1 
C990: x42+x48-y42_48 <=1 
C991: x42+x52-y42_52 <=1 
C992: x42+x53-y42_53 <=1 
C993: x42+x54 <=1 
C994: x42+x56 <=1 
C995: x42+x58-y42_58 <=1 
C996: x42+x59-y42_59 <=1 
C997: x43+x46 <=1 
C998: x43+x49-y43_49 <=1 
C999: x43+x51 <=1 
C1000: x43+x52 <=1 
C1001: x43+x53 <=1 
C1002: x43+x55-y43_55 <=1 
C1003: x43+x57-y43_57 <=1 
C1004: x44+x45 <=1 
C1005: x44+x46-y44_46 <=1 
C1006: x44+x47 <=1 
C1007: x44+x48 <=1 
C1008: x44+x50-y44_50 <=1 
C1009: x44+x51 <=1 
C1010: x44+x55 <=1 
C1011: x44+x56-y44_56 <=1 
C1012: x44+x57-y44_57 <=1 
C1013: x45+x46-y45_46 <=1 
C1014: x45+x47 <=1 
C1015: x45+x48-y45_48 <=1 
C1016: x45+x49-y45_49 <=1 
C1017: x45+x50-y45_50 <=1 
C1018: x45+x51 <=1 
C1019: x45+x52-y45_52 <=1 
C1020: x45+x53 <=1 
C1021: x45+x54 <=1 
C1022: x45+x55-y45_55 <=1 
C1023: x45+x56-y45_56 <=1 
C1024: x45+x58-y45_58 <=1 
C1025: x45+x59-y45_59 <=1 
C1026: x46+x47-y46_47 <=1 
C1027: x46+x49-y46_49 <=1 
C1028: x46+x50 <=1 
C1029: x46+x51 <=1 
C1030: x46+x53-y46_53 <=1 
C1031: x46+x57 <=1 
C1032: x46+x59 <=1 
C1033: x47+x48 <=1 
C1034: x47+x50 <=1 
C1035: x47+x51 <=1 
C1036: x47+x55-y47_55 <=1 
C1037: x47+x56 <=1 
C1038: x47+x57-y47_57 <=1 
C1039: x47+x58-y47_58 <=1 
C1040: x47+x59-y47_59 <=1 
C1041: x48+x49 <=1 
C1042: x48+x50 <=1 
C1043: x48+x51-y48_51 <=1 
C1044: x48+x52 <=1 
C1045: x48+x58 <=1 
C1046: x48+x59 <=1 
C1047: x49+x51 <=1 
C1048: x49+x52 <=1 
C1049: x49+x53 <=1 
C1050: x49+x54 <=1 
C1051: x49+x56-y49_56 <=1 
C1052: x49+x57-y49_57 <=1 
C1053: x49+x58-y49_58 <=1 
C1054: x49+x59-y49_59 <=1 
C1055: x50+x51-y50_51 <=1 
C1056: x50+x53-y50_53 <=1 
C1057: x50+x54 <=1 
C1058: x50+x55 <=1 
C1059: x50+x56-y50_56 <=1 
C1060: x50+x58-y50_58 <=1 
C1061: x51+x52-y51_52 <=1 
C1062: x51+x54 <=1 
C1063: x51+x56-y51_56 <=1 
C1064: x51+x58-y51_58 <=1 
C1065: x52+x56 <=1 
C1066: x52+x58-y52_58 <=1 
C1067: x52+x59 <=1 
C1068: x53+x55-y53_55 <=1 
C1069: x53+x56 <=1 
C1070: x53+x57-y53_57 <=1 
C1071: x53+x58-y53_58 <=1 
C1072: x54+x55 <=1 
C1073: x54+x56-y54_56 <=1 
C1074: x54+x57 <=1 
C1075: x54+x58 <=1 
C1076: x55+x57-y55_57 <=1 
C1077: x56+x59 <=1 
C1078: x57+x58-y57_58 <=1 
C1079: x57+x59-y57_59 <=1 
C1080: x58+x59 <=1 

binary
x0
x1
x2
x3
x4
x5
x6
x7
x8
x9
x10
x11
x12
x13
x14
x15
x16
x17
x18
x19
x20
x21
x22
x23
x24
x25
x26
x27
x28
x29
x30
x31
x32
x33
x34
x35
x36
x37
x38
x39
x40
x41
x42
x43
x44
x45
x46
x47
x48
x49
x50
x51
x52
x53
x54
x55
x56
x57
x58
x59
