problem_generation/data/GISP/train/er_n=60_m=1080_p=0.60_SET2_setparam=100.00_alpha=0.50_903.sol
objective value:                                 1176
x12                                                 1 	(obj:100)
x14                                                 1 	(obj:100)
x26                                                 1 	(obj:100)
x28                                                 1 	(obj:100)
x29                                                 1 	(obj:100)
x30                                                 1 	(obj:100)
x36                                                 1 	(obj:100)
x37                                                 1 	(obj:100)
x41                                                 1 	(obj:100)
x43                                                 1 	(obj:100)
x48                                                 1 	(obj:100)
x57                                                 1 	(obj:100)
y29_41                                              1 	(obj:-1)
y29_36                                              1 	(obj:-1)
y14_28                                              1 	(obj:-1)
y28_48                                              1 	(obj:-1)
y12_57                                              1 	(obj:-1)
y28_37                                              1 	(obj:-1)
y30_41                                              1 	(obj:-1)
y12_29                                              1 	(obj:-1)
y12_28                                              1 	(obj:-1)
y26_29                                              1 	(obj:-1)
y26_28                                              1 	(obj:-1)
y26_37                                              1 	(obj:-1)
y29_43                                              1 	(obj:-1)
y14_26                                              1 	(obj:-1)
y36_41                                              1 	(obj:-1)
y43_57                                              1 	(obj:-1)
y14_30                                              1 	(obj:-1)
y28_36                                              1 	(obj:-1)
y28_30                                              1 	(obj:-1)
y30_48                                              1 	(obj:-1)
y12_26                                              1 	(obj:-1)
y26_36                                              1 	(obj:-1)
y41_57                                              1 	(obj:-1)
y12_30                                              1 	(obj:-1)
